NAME: random-17-13523
TYPE: TSP
COMMENT: size=17 seed=13523
DIMENSION: 36
EDGE_WEIGHT_TYPE: EUC_2D
NODE_COORD_SECTION
+0 61 861
-0 61 861
+1 402 136
-1 20 734
+2 387 374
-2 778 767
+3 977 817
-3 67 608
+4 496 979
-4 272 835
+5 154 698
-5 99 557
+6 906 84
-6 556 620
+7 393 351
-7 161 369
+8 573 914
-8 392 673
+9 932 411
-9 370 203
+10 761 767
-10 55 739
+11 585 281
-11 217 532
+12 973 764
-12 368 399
+13 179 813
-13 238 873
+14 239 575
-14 325 376
+15 855 484
-15 420 394
+16 649 159
-16 418 162
+17 292 900
-17 17 545
PRECEDENCE_SECTION
+0 -0
+1 -1
+2 -2
+3 -3
+4 -4
+5 -5
+6 -6
+7 -7
+8 -8
+9 -9
+10 -10
+11 -11
+12 -12
+13 -13
+14 -14
+15 -15
+16 -16
+17 -17
EOF
